c This is an instance of the exact track of PACE 2020 Challenge, see https://pacechallenge.org/2020/ 
c TYPE: infrastructure 
c ORIGIN: Open street maps 
c DESCRIPTION: Fabianki (Poland): a road network downloaded from open street maps using osmnx Python package 
p tdp 132 191
1 2
1 105
1 114
2 16
2 114
2 104
3 6
4 32
4 33
5 7
5 46
5 47
6 48
6 36
6 46
7 34
7 132
7 8
8 35
8 43
9 10
9 19
9 48
10 19
10 106
11 45
11 33
11 16
12 39
13 39
13 14
13 17
14 34
14 15
15 18
15 108
16 45
17 49
17 43
18 49
19 22
20 24
21 23
22 44
22 25
23 24
23 26
24 25
25 119
25 113
26 27
26 117
26 119
28 30
29 132
30 32
30 31
32 33
34 35
35 39
36 106
36 40
36 132
37 38
37 109
38 40
38 107
39 43
40 42
40 41
41 42
41 106
41 44
42 107
44 106
45 108
46 47
47 48
50 51
50 52
51 52
52 105
53 116
53 57
53 122
53 54
54 118
54 58
54 55
55 59
56 60
56 124
56 127
57 61
57 58
57 126
58 59
58 128
60 62
60 67
61 65
61 128
62 77
62 71
63 65
63 66
63 127
64 77
65 66
65 72
66 67
66 69
67 75
67 69
68 81
69 70
70 85
71 73
71 79
72 128
73 76
73 74
74 129
74 78
76 84
76 80
76 82
77 81
77 79
78 88
79 83
80 129
80 82
80 93
81 83
82 84
82 93
83 95
84 86
85 87
86 95
86 96
88 90
89 92
89 129
89 90
89 91
91 94
91 129
92 94
93 130
94 130
94 131
96 130
96 99
96 97
96 100
97 98
97 131
97 130
98 131
98 100
99 101
100 101
101 102
103 112
104 115
105 117
107 109
107 113
108 111
109 110
110 116
110 112
112 118
113 122
113 116
114 115
115 120
116 118
117 120
119 121
119 122
120 124
121 124
121 123
122 123
123 126
124 125
125 126
125 127
